# Solution for model GasLib-40
# Objective value = 3.8522497721879866e+01
loadshed[innode_1] 0
loadshed[innode_2] 0
loadshed[innode_3] 0
loadshed[innode_4] 0
loadshed[innode_5] 0
loadshed[innode_6] 0
loadshed[innode_7] 0
loadshed[innode_8] 0
loadshed[source_1] -2.4002500469717503e-01
loadshed[source_2] 1.3170602596658321e-01
loadshed[source_3] 3.5199302537886812e-01
loadshed[sink_1] 0
loadshed[sink_2] 0
loadshed[sink_3] 0
loadshed[sink_4] 0
loadshed[sink_5] 0
loadshed[sink_6] 0
loadshed[sink_7] 0
loadshed[sink_8] 0
loadshed[sink_9] 0
loadshed[sink_10] 0
loadshed[sink_11] 0
loadshed[sink_12] 1
loadshed[sink_13] 0
loadshed[sink_14] 0
loadshed[sink_15] 0
loadshed[sink_16] 0
loadshed[sink_17] 0
loadshed[sink_18] 0
loadshed[sink_19] 0
loadshed[sink_20] 0
loadshed[sink_21] 1
loadshed[sink_22] 0
loadshed[sink_23] 0
loadshed[sink_24] 3.5551578426781327e-01
loadshed[sink_25] 0
loadshed[sink_26] 0
loadshed[sink_27] 0
loadshed[sink_28] 0
loadshed[sink_29] 0
flow[source_1,sink_3] 1.9603589744396658e+02
flow[innode_1,sink_16] 1.6354166666666970e+01
flow[innode_6,sink_13] 1.2035564046888085e+01
flow[sink_13,sink_14] -4.3186026197785825e+00
flow[sink_14,sink_10] -2.0672769286445146e+01
flow[sink_25,sink_26] 1.3000269901236874e+02
flow[sink_26,sink_9] 3.2708333333334551e+01
flow[sink_9,sink_18] 1.6354166666667879e+01
flow[sink_26,sink_4] 8.0940199012367529e+01
flow[sink_4,sink_20] -1.5553837215791228e+01
flow[sink_18,sink_6] 0
flow[sink_25,innode_8] -1.6332756411063019e+02
flow[sink_6,sink_7] -4.9062500000000313e+01
flow[sink_6,sink_22] 3.2708333333333641e+01
flow[sink_7,sink_24] 1.0540002278120136e+01
flow[sink_22,sink_1] 1.6354166666666970e+01
flow[sink_24,sink_21] 0
flow[sink_21,sink_12] 0
flow[sink_7,sink_5] -7.5956668944787111e+01
flow[sink_5,sink_17] -9.2310835611453783e+01
flow[sink_17,sink_4] -8.0139869561492091e+01
flow[sink_17,sink_8] -2.8525132716628359e+01
flow[sink_3,sink_23] 16.3541666666697
flow[sink_8,sink_20] -4.4879299383295027e+01
flow[sink_25,sink_20] 7.6787303265752882e+01
flow[sink_25,sink_15] -7.1852168881045529e+01
flow[sink_15,sink_29] 0
flow[sink_29,sink_28] 1.6354166666667879e+01
flow[sink_29,sink_2] 1.0456050221437887e+02
flow[sink_2,sink_15] 88.2063355477122
flow[sink_29,innode_7] -1.3726883554771342e+02
flow[innode_4,sink_19] 1.0244360261979213e+02
flow[sink_19,innode_3] 34.0305170593739
flow[innode_4,innode_5] 0
flow[sink_27,innode_5] 0
flow[sink_27,sink_19] -1.6354166666679703e+01
flow[sink_10,sink_11] 3.2708333333333641e+01
flow[sink_10,innode_2] -3.5704752227071864e+01
flow[sink_10,innode_3] -34.0305170593739
flow[innode_6,sink_25] -1.2035564046888085e+01
flow[sink_11,innode_1] 1.6354166666666970e+01
flow[sink_19,innode_2] 3.5704752227071864e+01
flow[source_3,innode_4] 1.0244360261979213e+02
flow[source_2,innode_7] 1.3726883554771342e+02
flow[sink_3,innode_8] 1.6332756411063019e+02
pressure[innode_1] 7.4824153701824358e+01
pressure[innode_2] 7.6862998630085016e+01
pressure[innode_3] 7.6787641903595059e+01
pressure[innode_4] 81.01325
pressure[innode_5] 7.6511868632941514e+01
pressure[innode_6] 7.4056683595774530e+01
pressure[innode_7] 81.01325
pressure[innode_8] 8.0357976883272045e+01
pressure[source_1] 81.01325
pressure[source_2] 81.01325
pressure[source_3] 81.01325
pressure[sink_1] 1.0306178472712014e+01
pressure[sink_2] 7.4693210874369868e+01
pressure[sink_3] 8.0357976883272045e+01
pressure[sink_4] 5.4609723465665560e+01
pressure[sink_5] 4.4670551892907952e+01
pressure[sink_6] 1.2407256083099387e+01
pressure[sink_7] 1.3080767260799519e+01
pressure[sink_8] 5.2623369267947666e+01
pressure[sink_9] 6.2942991682800077e+01
pressure[sink_10] 74.9758550094279
pressure[sink_11] 7.4824153701824358e+01
pressure[sink_12] 1.01325
pressure[sink_13] 7.3990333542513639e+01
pressure[sink_14] 7.3998062049765338e+01
pressure[sink_15] 7.4405236629169821e+01
pressure[sink_16] 7.3802503867006678e+01
pressure[sink_17] 5.1547041904076792e+01
pressure[sink_18] 6.2351249189000370e+01
pressure[sink_19] 7.6862998630085016e+01
pressure[sink_20] 5.5750825285211945e+01
pressure[sink_21] 1.01325
pressure[sink_22] 1.1369947615067025e+01
pressure[sink_23] 8.0193258871612258e+01
pressure[sink_24] 1.01325
pressure[sink_25] 7.4056683595774530e+01
pressure[sink_26] 6.4900669850684679e+01
pressure[sink_27] 7.6511868632941514e+01
pressure[sink_28] 7.7046564125526928e+01
pressure[sink_29] 77.3418463991441
interdiction[source_1,sink_3] 0
interdiction[innode_1,sink_16] 0
interdiction[innode_6,sink_13] 0
interdiction[sink_13,sink_14] 0
interdiction[sink_14,sink_10] 0
interdiction[sink_25,sink_26] 0
interdiction[sink_26,sink_9] 0
interdiction[sink_9,sink_18] 0
interdiction[sink_26,sink_4] 0
interdiction[sink_4,sink_20] 0
interdiction[sink_18,sink_6] 1
interdiction[sink_25,innode_8] 0
interdiction[sink_6,sink_7] 0
interdiction[sink_6,sink_22] 0
interdiction[sink_7,sink_24] 0
interdiction[sink_22,sink_1] 0
interdiction[sink_24,sink_21] 0
interdiction[sink_21,sink_12] 0
interdiction[sink_7,sink_5] 0
interdiction[sink_5,sink_17] 0
interdiction[sink_17,sink_4] 0
interdiction[sink_17,sink_8] 0
interdiction[sink_3,sink_23] 0
interdiction[sink_8,sink_20] 0
interdiction[sink_25,sink_20] 0
interdiction[sink_25,sink_15] 0
interdiction[sink_15,sink_29] 1
interdiction[sink_29,sink_28] 0
interdiction[sink_29,sink_2] 0
interdiction[sink_2,sink_15] 0
interdiction[sink_29,innode_7] 0
interdiction[innode_4,sink_19] 0
interdiction[sink_19,innode_3] 0
interdiction[innode_4,innode_5] 1
interdiction[sink_27,innode_5] 0
interdiction[sink_27,sink_19] 0
interdiction[sink_10,sink_11] 0
interdiction[sink_10,innode_2] 0
interdiction[sink_10,innode_3] 0
interdiction[innode_6,sink_25] 0
interdiction[sink_11,innode_1] 0
interdiction[sink_19,innode_2] 0
interdiction[source_3,innode_4] 0
interdiction[source_2,innode_7] 0
interdiction[sink_3,innode_8] 0
WCcheckFlow[source_1,sink_3] 39
WCcheckFlow[innode_1,sink_16] 1
WCcheckFlow[innode_6,sink_13] 13
WCcheckFlow[sink_13,sink_14] 12
WCcheckFlow[sink_14,sink_10] 11
WCcheckFlow[sink_25,sink_26] 15
WCcheckFlow[sink_26,sink_9] 2
WCcheckFlow[sink_9,sink_18] 1
WCcheckFlow[sink_26,sink_4] 12
WCcheckFlow[sink_4,sink_20] 1
WCcheckFlow[sink_18,sink_6] 0
WCcheckFlow[sink_25,innode_8] -36
WCcheckFlow[sink_6,sink_7] -3
WCcheckFlow[sink_6,sink_22] 2
WCcheckFlow[sink_7,sink_24] 3
WCcheckFlow[sink_22,sink_1] 1
WCcheckFlow[sink_24,sink_21] 2
WCcheckFlow[sink_21,sink_12] 1
WCcheckFlow[sink_7,sink_5] -7
WCcheckFlow[sink_5,sink_17] -8
WCcheckFlow[sink_17,sink_4] -10
WCcheckFlow[sink_17,sink_8] 1
WCcheckFlow[sink_3,sink_23] 1
WCcheckFlow[sink_8,sink_20] 0
WCcheckFlow[sink_25,sink_20] 0
WCcheckFlow[sink_25,sink_15] 6
WCcheckFlow[sink_15,sink_29] 0
WCcheckFlow[sink_29,sink_28] 1
WCcheckFlow[sink_29,sink_2] -4
WCcheckFlow[sink_2,sink_15] -5
WCcheckFlow[sink_29,innode_7] 2
WCcheckFlow[innode_4,sink_19] -2
WCcheckFlow[sink_19,innode_3] -5
WCcheckFlow[innode_4,innode_5] 0
WCcheckFlow[sink_27,innode_5] 1
WCcheckFlow[sink_27,sink_19] -2
WCcheckFlow[sink_10,sink_11] 3
WCcheckFlow[sink_10,innode_2] 1
WCcheckFlow[sink_10,innode_3] 6
WCcheckFlow[innode_6,sink_25] -14
WCcheckFlow[sink_11,innode_1] 2
WCcheckFlow[sink_19,innode_2] 0
WCcheckFlow[source_3,innode_4] -1
WCcheckFlow[source_2,innode_7] -1
WCcheckFlow[sink_3,innode_8] 37
